c User generated cnf file
p cnf 15 53
-6 11 3 0 
7 -10 5 0 
-9 14 6 0 
6 -13 15 0 
-10 9 15 0 
-4 12 6 0 
-15 9 10 0 
6 4 -10 0 
12 -12 7 0 
10 -2 8 0 
12 11 -6 0 
-8 10 1 0 
11 -10 7 0 
3 -11 2 0 
-2 12 5 0 
-5 5 7 0 
9 15 -10 0 
3 -5 8 0 
-1 10 8 0 
11 3 -8 0 
10 -2 4 0 
-1 1 13 0 
13 15 -15 0 
-6 5 5 0 
-7 6 13 0 
7 -15 5 0 
-3 5 10 0 
11 12 -7 0 
-2 2 1 0 
7 -4 4 0 
12 6 -8 0 
4 6 -12 0 
-5 15 13 0 
14 -14 4 0 
14 -7 5 0 
2 -15 10 0 
-6 2 2 0 
4 -11 6 0 
4 1 -14 0 
-11 10 4 0 
13 3 -5 0 
3 -10 8 0 
12 8 -6 0 
-3 7 15 0 
-14 3 12 0 
-14 9 13 0 
9 -15 10 0 
7 -7 10 0 
-13 4 5 0 
12 -3 2 0 
4 -5 2 0 
14 -12 7 0 
5 -13 11 0 
